50
    1   256   155
    2   392   396
    3   386   346
    4   282   427
    5    67     8
    6    91   165
    7    19   481
    8   165    95
    9   112   393
   10   192   322
   11   241   495
   12     9   179
   13   141    96
   14   500   256
   15   341   228
   16   394    28
   17    24   145
   18   484   188
   19   232   461
   20   339   390
   21   139   277
   22   485    11
   23   142   156
   24    58    14
   25   335   456
   26   152   136
   27   290   478
   28   405   295
   29   136   305
   30   470    87
   31   435    33
   32   178     7
   33   454   207
   34   345   289
   35   457   300
   36   311   237
   37   415   212
   38   201   280
   39   160   156
   40   205   106
   41    78   151
   42   379   277
   43   371   190
   44    89   273
   45   320   239
   46   461    58
   47    66   109
   48   106    29
   49   178   119
   50   151   252
9160
